CMD:
./solvers/bin/cadical --plain --no-reduce -t 1600 ./data/cnfs//vis4arbitp1/vis4arbitp1.35.cnf

c --- [ banner ] -------------------------------------------------------------
c 
c CaDiCaL SAT Solver
c Copyright (c) 2016-2024
c A. Biere, M. Fleury, N. Froleyks, K. Fazekas, F. Pollitt, T. Faller
c JKU Linz, University of Freiburg, TU Wien
c 
c Version 2.1.3 5296d3d2a9bf48c154ab2acb5e44625776d821bf
c g++ (Gentoo 12.3.1_p20230526 p2) 12.3.1 20230526 -Wall -Wextra -O3 -DNDEBUG
c Sat Aug 9 07:26:21 PDT 2025 Linux cedar2.int.cedar.computecanada.ca 5.14.0-362.24.2.el9_3.x86_64 x86_64
c 
c --- [ limit ] --------------------------------------------------------------
c 
c setting time limit to 1600 seconds real time (due to '-t 1600')
c 
c --- [ parsing input ] ------------------------------------------------------
c 
c reading DIMACS file from './data/cnfs//vis4arbitp1/vis4arbitp1.35.cnf'
c opening file to read './data/cnfs//vis4arbitp1/vis4arbitp1.35.cnf'
c found 'p cnf 11831 34043' header
c parsed 34043 clauses in 0.01 seconds process time
c 
c --- [ options ] ------------------------------------------------------------
c 
c   --compact=false                (different from default 'true')
c   --decompose=false              (different from default 'true')
c   --deduplicate=false            (different from default 'true')
c   --elim=false                   (different from default 'true')
c   --probe=false                  (different from default 'true')
c   --reduce=false                 (different from default 'true')
c   --subsume=false                (different from default 'true')
c   --ternary=false                (different from default 'true')
c   --transred=false               (different from default 'true')
c   --vivify=false                 (different from default 'true')
c 
c --- [ solving ] ------------------------------------------------------------
c 
c time measured in process time since initialization
c 
c  seconds  reductions  redundant  irredundant
c         MB    restarts       trail      variables
c          level   conflicts       glue        remaining
c 
c *  0.01  9  0 0   0    0    0  0% 0 33247 11340 96%
c {  0.01  9  0 0   0    0    0  0% 0 33247 11340 96%
c i  0.02  9 285 0   6  363  361 52% 1 33247 11317 96%
c i  0.02  9 284 0   6  364  361 52% 1 33247 11299 96%
c i  0.02  9 285 0   7  398  363 55% 1 33247 11279 95%
c i  0.02  9 287 0   9  403  366 56% 1 33247 11247 95%
c i  0.02  9 286 0   9  404  366 56% 1 33247 11229 95%
c i  0.02  9 286 0   9  407  367 56% 1 33247 11211 95%
c i  0.02  9 285 0   9  409  367 56% 1 33247 11182 95%
c i  0.03  9 284 0   9  410  367 56% 1 33247 11164 94%
c }  0.04 10 137 0 165 1000  920 34% 2 33247 11164 94%
c [  0.04 10  0 0 165 1000  920  0% 0 33247 11164 94%
c O  0.04 10 112 0 165 1003  923 46% 3 33247 11164 94%
c i  0.07 10 122 0 165 1521 1372 64% 8 33247 11161 94%
c i  0.12 10 90 0 166 2698 2451 48% 8 33247 11146 94%
c i  0.12 10 90 0 166 2879 2611 49% 8 33247 11133 94%
c i  0.12 10 90 0 166 2980 2707 49% 8 33247 11122 94%
c ]  0.12 10 90 0 166 3002 2726 49% 8 33247 11120 94%
c {  0.12 10 137 0 166 3002 2726 34% 2 33247 11120 94%
c F  0.12 10 137 0 168 3007 2731 34% 2 33247 11120 94%
c 
c  seconds  reductions  redundant  irredundant
c         MB    restarts       trail      variables
c          level   conflicts       glue        remaining
c 
c i  0.15 10 94 0 320 3654 3341 30% 2 33247 11119 94%
c i  0.16 10 81 0 412 4080 3727 28% 2 33247 11118 94%
c i  0.19 10 69 0 553 4661 4267 27% 3 33247 11116 94%
c i  0.20 10 65 0 620 4923 4507 27% 3 33247 11114 94%
c i  0.23 11 58 0 806 5672 5206 26% 3 33247 11109 94%
c #  0.25 11 56 0 861 6010 5522 27% 3 33247 11109 94%
c i  0.25 11 56 0 861 6125 5617 27% 3 33247 11093 94%
c i  0.25 11 56 0 861 6172 5655 27% 3 33247 11089 94%
c }  0.30 11 51 0 1003 7002 6427 27% 3 33247 11089 94%
c [  0.30 11 90 0 1003 7002 6427 49% 8 33247 11089 94%
c I  0.43 11 77 0 1005 10013 9164 53% 7 33247 11089 94%
c ]  0.72 12 58 0 1008 15002 13646 46% 9 33247 11089 94%
c {  0.72 12 51 0 1008 15002 13646 27% 3 33247 11089 94%
c B  0.72 12 51 0 1012 15014 13657 27% 3 33247 11089 94%
c i  0.75 13 50 0 1098 15346 13957 27% 3 33247 11087 94%
c W  1.26 14 39 0 2393 21015 19102 28% 5 31762 11087 94%
c F  1.94 15 32 0 3653 28019 25465 28% 5 31762 11087 94%
c i  2.04 15 31 0 3828 29609 26810 27% 5 31762 11069 94%
c i  2.05 15 31 0 3836 29735 26923 27% 5 31762 11052 93%
c i  2.05 15 30 0 3836 29863 27010 27% 5 31762 10849 92%
c 
c  seconds  reductions     redundant  irredundant
c         MB    restarts          trail      variables
c          level     conflicts        glue        remaining
c 
c i  2.05 15 30 0 3836 29864 27010 27% 5 31762 10833 92%
c i  2.06 15 30 0 3836 29873 27014 27% 5 31762 10731 91%
c }  2.06 15 30 0 3836 29875 27014 27% 5 31762 10415 88%
c 0  2.06 15 30 0 3836 29875 27014 27% 5 31762 10415 88%
c 
c --- [ result ] -------------------------------------------------------------
c 
s UNSATISFIABLE
c 
c --- [ run-time profiling ] -------------------------------------------------
c 
c process time taken by individual solving procedures
c (percentage relative to process time for solving)
c 
c         2.05   99.99% search
c         1.52   74.32% unstable
c         0.51   24.89% stable
c         0.01    0.60% walk
c         0.01    0.32% parse
c         0.00    0.18% lucky
c         0.00    0.00% simplify
c   =================================
c         2.05   99.66% solve
c 
c last line shows process time for solving
c (percentage relative to total process time)
c 
c --- [ statistics ] ---------------------------------------------------------
c 
c chronological:             10892        36.46 %  of conflicts
c conflicts:                 29875     14585.22    per second
c decisions:                151380     73904.94    per second
c fixed:                      1416        11.97 %  of all variables
c learned:                   28712        96.11 %  per conflict
c learned_lits:             724960       100.00 %  learned literals
c minimized:                     0         0.00 %  learned literals
c shrunken:                 106133        14.64 %  learned literals
c minishrunken:             136741        18.86 %  learned literals
c otfs:                        240         0.80 %  of conflict
c propagations:           19905994         9.72 M  per second
c rephased:                      7      4267.86    interval
c restarts:                   3836         7.79    interval
c stabilizing:                   2        33.47 %  of conflicts
c subsumed:                   1665         2.69 %  of all clauses
c strengthened:                236         0.38 %  of all clauses
c walked:                        1     29875.00    interval
c 
c seconds are measured in process time for solving
c 
c --- [ resources ] ----------------------------------------------------------
c 
c total process time since initialization:         2.06    seconds
c total real time since initialization:            2.07    seconds
c maximum resident set size of process:           29.27    MB
c 
c --- [ shutting down ] ------------------------------------------------------
c 
c exit 20
